3 
4  45 
5  00 15 28 35 43 50 
6  00 07 15 22 30 37 45 52 
7  00 07 15 22 30 37 45 52 
8  00 07 15 22 30 37 45 52 
9  00 07 15 22 34 41 49 56 
10  04 11 19 26 34 41 49 56 
11  04 11 19 26 34 41 49 56 
12  04 11 19 26 34 41 49 56 
13  04 11 19 26 34 41 49 56 
14  04 11 19 26 34 45 53 
15  00 07 15 23 30 38 45 53 
16  00 08 15 23 30 38 45 53 
17  00 08 15 23 30 39 45 54 
18  00 09 15 24 30 38 49 56 
19  04 11 19 26 36 46 54 
20  02 16 30 45 
21  00 15 30 45 56 
22  11 26 41 
23  01 
0 
